114 124 Elimayo 22 0 4
117 119 Eodyn 14 0 5
116 116 jaikie 15 0 6
117 116 Archrune 14 260 7
118 116 Archrune 14 260 8
121 119 kingbum 12 1430 9
109 112 Zenoa 13 0 9
102 119 Ethanr2139 28 0 10
101 126 Morigul 14 0 12
99 119 Blake 13 1101 13
114 108 kurtisap37 13 0 13
102 111 Basistsdoitdeap 36 0 14
102 110 NewUser-357K 16 0 15
125 113 Sambarnes94 15 0 15
126 128 Wargoo 20 0 16
111 137 FlowerBank 11 0 16
126 130 Youtube 12 1375 17
127 113 NewUser-357K 16 0 17
122 135 moria1 13 0 17
99 133 Brian25 11 0 18
104 137 Qtpatootie 12 0 18
118 138 fertilityban 16 0 18
130 119 jimbo4321 20 0 18
94 124 roebandit 16 0 18
103 137 Aesthetic 12 0 18
94 117 Eskil 11 0 18
110 140 childermass 16 0 19
95 111 mkulifay13 13 310 20
92 120 Li57 14 444 20
130 130 Sammear 12 0 20
93 113 FreakyFloBank 14 0 21
92 112 jzushugsdaloser 16 0 22
106 99 PurpleShireling 16 0 23
134 128 Stealinwilds 45 0 23
128 104 NewUser-35LYD 13 0 23
104 99 sam_wise_andy2 22 0 23
113 145 Sigurd 13 1050 24
102 99 Legos 13 632 24
131 136 Tatooine 16 1626 24
87 114 Talandrius 34 0 26
120 146 Might_o 14 0 26
86 115 Krawn 16 0 27
120 95 Twiglet 12 0 27
111 149 Thorkel 18 0 28
84 117 Lloyd 18 272 28
97 145 Lou 18 0 28
97 97 JonRolan 15 0 28
129 145 Mitrandil 14 1016 29
106 150 KingJones 14 0 30
118 150 Kaldor 15 0 30
95 146 SquishtheBug 15 0 30
123 150 Ave 20 871 31
82 112 Maxzeth 16 0 31
124 150 nicholasmaximus 11 0 31
81 114 Figalino 11 642 32
87 142 ElJefedePirate 14 9 33
83 137 Ben6211 23 0 33
88 144 MungoMaggot 12 0 33
144 130 NewUser-1K5O8 18 0 33
118 154 Hal11 11 1484 34
80 132 Baulder 13 0 34
132 93 Riatsala27 12 0 34
147 133 Edisonpeck 21 0 37
150 127 peeky 26 0 38
151 114 Sp3gro 13 0 40
136 153 Rolando 19 0 40
126 159 GingerHugz 20 0 40
139 152 Toddlaaaa 11 0 41
127 160 GingerHugz 20 0 42
129 160 Kristi 13 0 43
70 133 Fluffypants 11 1 44
119 77 Juned 12 730 45
154 104 Trident 15 0 45
95 79 Brianna1 13 0 45
137 159 Brenjambo 25 0 45
69 106 Stwilt 14 0 46
114 75 Shay2013 14 0 46
91 79 Thrim 37 0 47
94 77 Jonny_brone 29 455 48
142 158 Ksantor 26 0 48
114 73 Camper9 16 0 48
64 127 Lord0098 11 0 48
160 115 peeky 26 0 48
131 166 Crazy8 11 140 49
63 118 Twiggalf 12 0 49
82 82 Zeras 26 2000 49
132 76 Skybond 12 0 49
63 126 Lando 13 0 49
75 154 KeVo'S_KiNgDoM 14 0 50
63 105 Jalomount 12 1700 52
153 153 NaughtiusMaxim 27 0 52
70 153 Dannyboy 19 0 53
138 75 Cedars 17 0 53
79 79 Caashe 18 1200 53
143 165 FieGit 13 0 54
98 69 Dragonscale 16 0 54
79 78 Mental_Tyas 11 0 54
151 159 Theland 11 0 54
77 79 fauna_ilab 18 0 55
87 72 ChickenHawk 14 0 55
89 71 Mvp 13 380 55
62 98 Jenny 13 0 55
150 161 Weedz 27 0 55
76 79 Meros 13 0 55
133 69 smartyy 25 0 56
71 82 Mallory 23 0 57
154 159 LordSaradoc 15 0 57
78 75 Ashhhhh 16 2182 57
132 66 Gladale 28 0 59
163 150 Michaeljones 31 0 59
152 164 Weedz 27 0 59
81 71 Caashe 18 1200 59
53 124 EnV 12 0 59
142 172 Finchy 13 0 59
149 168 YoungGun 17 0 60
137 176 Furney 11 1498 60
146 172 walhalla2 14 0 61
122 60 Battlefield 11 0 62
160 160 Emericanized 11 744 62
149 172 VoodooAndrew 14 0 63
133 181 guesswho 13 0 64
83 64 JeffSpicoli 18 0 64
85 63 woodywoodpecker 17 0 64
145 176 Rivendalia 31 0 64
159 165 musicmatt 17 968 64
129 184 DVH 16 0 65
142 179 conceited 12 770 65
172 151 Elrond124 11 1592 67
70 67 me_gusta 16 0 68
146 181 Warland 12 0 69
154 177 ElfWill 24 0 70
63 71 Gorrag 11 0 70
93 53 TurnAround 13 0 71
63 69 TonyStark 46 1000 71
163 172 RedOctober 13 0 72
178 151 Sarah 11 665 72
131 191 Boss25 13 0 73
140 54 seba 15 0 73
135 190 FarAwayWorlds 31 0 73
64 176 andural 27 400 73
67 63 Woodlandkeep 21 0 73
152 183 FireMedic 13 1156 74
67 62 GoodKush 15 0 74
146 187 Peredhil 21 0 74
164 174 btrippin 21 0 74
134 50 Reb 12 0 74
70 185 Mahreo 12 850 77
128 45 LittleGanda 12 0 78
80 192 Collie 15 0 78
177 164 Lazydog 33 1222 78
74 190 sethsemones 22 400 79
58 179 Wildfritz 32 2528 79
138 196 GodKingLenek 18 0 79
144 194 Qwerty99 16 0 80
129 199 Rivenndel 13 500 80
67 187 lothlorienBANK 12 268 80
62 184 Dukedum 12 0 80
140 197 swedishrose 18 0 81
117 202 Kobenator 12 0 81
121 202 Quinntopolus 21 0 81
57 182 retardation 11 0 82
63 187 C41N 47 0 82
64 188 ineedmoney 18 0 82
166 184 Beowoulf 16 0 83
56 184 JSal 11 898 84
132 39 Norseman 25 0 84
62 189 Spike65 13 0 84
128 204 Punish 17 0 85
177 177 Kitchyayayaya 25 0 86
62 51 Asfaloth 15 0 86
152 43 Teancum 14 0 88
150 200 Bruce 11 0 88
195 151 Rimany 11 0 88
194 154 DoubleAK 12 357 88
52 56 Sweller 29 623 88
154 43 Bellheir 17 965 89
160 196 Aramitheas 20 2822 89
96 209 kismet 26 1000 89
155 200 Ciara1888 12 0 90
33 78 DeCap 13 0 90
195 157 BrewBeard 20 0 90
123 211 Zoven 11 0 91
138 208 Dazland 25 1086 91
193 163 Mord 13 0 91
96 211 kismet 26 1000 91
188 172 jonny_mal 11 368 92
35 172 Hensteph 14 0 92
197 158 Lalena 14 0 93
67 203 Tavi 14 0 94
20 104 Anth90001 12 190 94
162 201 SkyNL 19 0 94
181 187 Mortim 14 0 95
207 111 KrisKringle 26 0 96
206 104 kaybo 16 0 96
122 216 Ryans 14 0 96
200 160 Ecce 16 0 96
206 100 AkkarinGrey 16 0 96
72 209 Jaybullet 26 0 97
17 103 Ma_Fratelli 17 0 97
16 109 Rivers 19 0 97
182 188 Lazydog 33 1222 97
176 194 Unshaken 13 0 97
153 210 Carrascal 12 690 98
154 210 Carrascal 12 690 98
162 207 Avacodo 11 0 99
200 168 gibbo 12 1430 100
13 108 Mordor12345678 11 0 100
116 222 Kilik 24 0 101
209 89 Dawn1 52 0 102
11 105 Frodon 23 0 102
130 222 bandziorr 16 391 103
210 153 Relday 11 90 103
42 44 Mhodi 14 250 104
160 28 Adelaide 14 0 105
161 28 822576577574100 23 0 105
163 214 QueenJustice 17 0 106
214 89 BrackKack 12 0 107
213 84 Balin44 37 0 108
213 81 Balin44 37 0 109
124 230 Untouchables 17 16 110
221 107 Fang1 14 939 110
178 209 Hardman25 23 0 110
219 95 Kops 13 0 110
222 127 P1GGY 17 0 110
208 176 Bigemcginn 23 600 111
220 95 NewUser-4XOT 11 0 111
180 210 BadApple 12 0 112
116 233 Konnor 18 0 112
223 137 Nilhom 15 2008 112
38 35 Emperors 13 0 113
208 184 Poodle 12 0 115
221 84 IKA 11 0 115
34 206 Jack14 19 0 115
136 8 Gear 15 0 116
36 208 SamboTan 25 0 116
225 95 Marko331 11 1024 116
3 79 LittleRoger 13 1785 117
36 210 Balrogg 21 0 117
28 203 Aragon2000 11 114 117
185 213 serdeg 15 0 117
225 154 Padvill 24 0 118
227 94 Godsbreath 13 0 118
74 233 MGNoyes 19 0 118
219 172 Darthpetman 40 0 119
4 72 Hella_good 23 0 119
3 73 BloodRunner 12 56 119
119 240 DannyboyPain 12 0 119
230 104 mokkasin 15 0 119
135 4 Xandros 25 0 119
224 79 VengaBoisen 16 424 120
222 74 Yourmama 12 0 120
5 66 AllySnedden 11 1035 120
3 70 SH5 20 0 120
117 242 limey 12 0 121
176 224 Konelly 16 0 121
229 89 nkl7891 15 0 121
3 66 krasnielapki 44 0 122
226 77 NewUser-1PDJ 12 108 122
95 245 redprovidence 19 965 125
9 49 Relday3 12 0 126
133 245 Cripblood 20 962 126
87 245 randomtask 16 4 126
222 184 VeteranofOld 43 0 127
229 170 Scubagem 16 12 127
68 240 Darkon 40 3308 127
4 54 Monty711 14 0 127
223 59 snipersx 19 0 127
228 174 Trojan 14 0 128
71 242 Aradol 14 1790 128
139 246 Ekompl 15 0 128
112 249 TomWhiting 16 0 128
111 250 Trevor483 13 0 129
128 250 Rankin 14 0 130
126 255 Big_Dank 24 0 135
130 257 DunBroch 15 1491 137
118 259 Cheshirepoet 11 1425 138
4 34 Sweller 29 623 139
214 27 Ezikiyil 18 0 139
180 242 BikPong 28 0 139
127 259 Tmohney21 15 0 139
178 244 Kaldovis 14 1948 140
180 245 SweatyFlaps 24 2544 141
201 9 wemzy2 27 0 143
132 264 Jakia 15 0 144
228 35 Marty_McFly 17 706 144
225 31 Whip_Mistress 11 1025 144
118 266 JedBell 15 0 145
120 266 oakbank 16 0 145
213 16 Dude 14 0 146
188 246 waterboy 30 0 146
153 262 Elanemyra 13 1288 147
3 21 Glorvien 15 0 148
114 270 HailToKing 14 1620 149
132 269 Zollin 12 0 149
99 270 Champ 12 0 150
227 25 HavensDen32 13 0 150
183 253 Drizzt 11 0 150
181 255 Uhtred 11 1450 151
130 271 Solace 13 0 151
151 267 BabaGsoub 19 0 151
39 255 Olivia 24 0 153
157 267 Knurl 14 0 153
99 274 Bjolfur 15 0 154
129 274 Rebels 13 0 154
43 259 ravencroft 14 0 154
35 255 silverdragon 16 0 155
229 18 joopart 26 0 156
219 5 HoneydewDwarf 16 0 158
232 18 Populas 14 0 158
17 250 Sauraman 12 0 160
36 263 Duckboy212 12 0 161
122 283 Corum 13 0 162
17 253 Fatspasm 11 0 163
128 283 Superdude 14 0 163
36 265 Kirrythia 13 0 163
124 284 Glorfindel1995 30 0 163
25 260 windwalker2 11 0 164
270 169 heide26 48 0 165
29 264 laourde 14 0 165
112 287 Paade 16 0 166
43 272 Daenerys813 19 0 166
172 276 Saeldor 23 0 166
50 276 2ndBankofPA 13 840 167
22 262 Luucc 11 0 167
273 167 Saturn 14 69 167
279 108 ThorinOakinshie 21 850 168
171 278 Legati 13 0 168
279 104 gooboopoo 13 289 168
3 249 Jteam 22 737 168
281 114 Raddude 39 0 169
108 291 Lokir 19 96 170
186 275 littlebrysi 13 0 171
14 261 Tylerf7 13 1582 171
112 292 vampire 29 0 171
15 262 Parkerf2 17 0 171
173 281 NewUser-4Z11 11 1482 171
20 266 TMag 14 0 172
107 293 Lynch 16 0 172
43 279 Ript3ar 17 601 172
9 260 dorny 33 0 173
47 283 NEW_USER 18 0 175
14 267 ArgyleDePlaid 12 765 176
180 284 daqqqe 11 0 177
20 272 Caradoc 37 0 177
36 282 immortalhero 19 0 178
52 289 Achmed 13 0 178
1 264 marconius 15 0 181
172 293 sheaohmsford 21 225 182
58 295 Lotharliol 12 0 182
61 296 Leibniz 20 0 182
57 295 MonsterJam 15 380 182
291 157 imknownn 16 457 183
96 303 Evun 25 0 183
139 302 DeShaun 25 1565 183
282 189 mataigrasa 14 1425 183
194 285 wilsongodofwar 27 0 183
174 294 Orloff 16 0 184
166 297 Helftro 14 0 184
280 197 Shaniqua 11 0 184
171 296 daisylover 14 1650 185
281 196 bergelkut 32 4309 185
186 292 becbec86 11 0 186
296 153 imknownn 16 457 187
1 272 CyredCalatear 22 0 187
171 299 Averin 13 98 188
21 285 Celeos 11 546 188
61 302 Nessor 11 1138 188
13 281 Draiken 18 0 188
16 283 Marydenise 12 680 188
53 301 elfKingJamjams 12 0 189
286 197 _Altar_ 12 0 190
105 311 Tumnasty 12 1722 190
31 294 Killerpurge 15 0 191
60 305 Melv 48 0 191
50 302 Brenning15 12 0 191
174 302 Robotania 13 0 191
157 307 Tenar 16 0 191
10 283 Squeaker 25 0 191
97 313 Samjam42 12 0 193
186 299 Seraphim 16 0 193
2 280 Hykeham 16 0 193
97 314 Wodiczko 24 482 194
27 295 djhojd 13 0 194
40 301 Kruszyn 42 2559 194
113 315 Rich78 11 0 194
40 303 Kruszyn 42 2559 196
293 196 lagdar 18 0 196
117 317 mitsuomi 28 0 196
305 80 Cosskkee 13 0 197
43 306 Amtate2 12 0 197
170 311 Benham 12 1651 199
295 200 Jd55 30 0 199
96 320 Ladymichelle 15 0 200
55 313 Seantherightous 11 280 200
40 309 CatanFreak 12 0 201
103 323 piekuta 11 0 202
101 323 Saintor 19 0 202
99 323 ThousandSunny 36 0 202
13 298 Galabron 11 1025 203
113 324 KingOfLimbs 32 0 203
112 325 WolfHeart 18 0 204
21 304 Karakzum 19 0 204
45 315 Stokecityfc 14 1755 205
15 302 Prettymuch 23 0 205
45 316 Stoneforge 11 0 206
42 315 NYCT 25 0 206
163 321 Killpack 11 0 206
7 299 Elduin 14 1668 207
11 302 Fundi 11 1092 207
4 298 Elduin 14 1668 207
309 186 spurmbank 15 4 207
194 312 BullettMagnate 15 48 208
307 193 Raiden13 11 0 208
179 318 Janda 14 0 208
167 322 Supermaan 11 0 208
44 318 TheGingerWizard 34 0 208
189 315 Ragalard 11 0 209
308 193 mytown 32 0 209
114 330 muffel 12 40 209
12 305 Prettymuch 23 0 209
96 330 DwarvenKing 22 0 210
177 321 ArwenRivendell 14 0 210
183 319 ninja_radish 12 0 210
32 316 CrayZ4DZ 11 1217 211
5 303 AdmiralAckbar 13 0 211
116 333 ElChico 11 225 212
102 333 bg1766 13 0 212
312 193 BubbledNoob 15 0 213
37 320 Flutchgreen 13 1472 213
115 335 AquaBeard 17 0 214
2 305 VampirePenguin 16 750 214
42 324 Booo 11 144 215
41 324 Happeyassassin 11 0 215
194 321 Saanich 13 0 216
94 337 SpasticDwarf 15 0 217
31 323 Jegolas 24 2149 218
58 333 Melv 48 0 219
190 326 TheCakeWarrior 14 1704 219
63 335 Egio 11 0 220
329 164 Eruantien 11 0 221
122 342 Unicorns 19 0 221
319 200 Strange1843 11 0 222
182 332 Freddan 14 0 222
35 330 NewUser-1ZQ4 13 1357 223
100 344 DaWulf 26 0 223
120 345 Mithrilminer 17 44 224
36 332 Aarroon 14 0 224
2 317 Twins 19 412 225
193 331 Samiam 12 124 225
40 335 wossie 14 0 226
195 331 RABBIDPONY 16 1750 226
115 347 Brooky 11 0 226
329 185 Tuana 16 0 226
333 174 Mount 30 0 227
100 348 rathgorn 15 0 227
91 349 bninja 21 0 229
2 322 macmullinRadio 21 0 229
11 330 tinaau 11 981 232
181 343 Watp 14 0 232
6 328 Absolut 17 0 233
6 329 Finwion 24 0 233
185 343 Bulldog 15 25 234
110 355 Braticus 12 0 234
16 335 MothStar 12 1422 235
35 343 Newfie 22 1272 235
340 179 Dunce 12 0 235
168 350 Losers 12 0 236
16 337 PrestigeElf 19 0 236
18 338 Sinder 12 0 236
5 332 Dr3mar 13 0 237
37 346 Newfie 22 1272 237
31 344 matheus 13 921 237
25 342 amabanana 35 0 238
191 345 BusStop 17 0 238
181 350 Flaranthalas 14 0 239
44 351 Ax3l 20 0 240
16 341 SH8 18 0 240
106 361 ScottyTomo 49 16 240
17 342 Eldarwen 14 0 241
23 345 thegreypilgrim 27 0 241
331 17 Lolisosa 16 765 242
195 349 warprince 12 1332 243
34 351 SH13 18 0 243
166 358 Jawbreaker 25 0 243
20 346 MothStar 12 1422 243
25 348 Sturdali 13 0 243
124 365 FlyingEagle 16 4 244
40 355 monsterr 14 0 245
29 353 BroRated 12 844 246
141 366 Avyeh 14 500 247
133 368 baraedeznu 12 0 248
35 357 Tree_man 15 0 248
20 352 Furstholm 14 0 249
94 370 Parathone 21 0 250
22 354 Dcarroll1997 11 0 250
107 371 Tmalcomb 13 0 250
104 371 eric1654 13 1650 250
103 371 Valthria 14 356 250
338 12 Mattman 17 0 251
108 372 Artimus 11 0 251
107 373 Bleed_Blu 13 1045 252
31 360 ProTre 12 0 252
59 369 Pat 11 72 254
85 374 abSOUL 12 0 254
138 375 HareMoose 15 0 255
65 373 danny06 11 715 256
92 378 NewUser-51PP 12 736 258
31 366 Syphyliss 11 0 258
148 377 LadyEowyn 29 0 259
39 369 Allnighter 15 2116 259
91 379 nudgeatron 16 353 259
150 378 Jackdalf 15 0 260
143 380 Ajion 38 1008 261
37 371 BeccaLynn 12 822 261
114 382 Jds 12 0 261
85 381 Mason12 12 0 261
73 380 Ttol 15 0 262
154 380 SH7 18 0 262
5 361 kristian 26 0 263
50 377 Kellen 44 576 263
168 381 Kerby 16 500 266
146 385 Ajion 38 1008 266
26 373 jamesc12 15 0 266
58 382 Richie 35 0 267
28 374 Elladan 20 0 267
72 385 MERICA 12 0 267
20 372 MasterMC 12 543 267
85 387 Daniel1992 12 1200 267
84 387 HareCobra 15 0 267
367 40 Grimgar 14 0 268
371 191 Laeli 12 0 268
66 386 Risk 25 450 269
114 390 Ken 12 0 269
10 370 Nilesh 16 0 269
369 41 Tswid 33 500 269
102 391 Gypsyking 25 0 270
65 388 Risk 25 450 271
64 388 bigbearm 12 0 271
69 389 GrimmReaper 13 20 271
148 391 Thorngrin 12 0 272
5 372 Dhoron 12 0 273
46 386 Crackers 47 0 273
377 188 FluffyBunny 18 880 273
29 382 HairyCracker 13 0 274
10 376 blackheart 22 0 275
386 100 joy1 14 1 275
386 97 joy1 14 1 275
130 396 Dansville 13 0 276
36 386 Rellevale 15 1250 276
373 32 Varrius 16 0 276
136 396 Chewaka 18 0 276
65 394 Galbatorax 17 0 277
104 398 Adzanator 12 0 277
39 389 killergerbil2 12 25 278
75 397 Nerdyturtles 11 465 278
61 395 kull5 16 1923 279
373 21 Crysaorin 13 1280 280
56 396 Drygna 12 0 281
117 402 Odinson 11 0 281
123 402 YHWH 20 0 281
376 24 SH3 17 0 281
63 398 Omarito 11 1607 281
16 386 Kementari 24 0 282
99 403 Noobie 15 827 282
148 402 mmgd66 13 0 283
379 25 Huasquitosqui 12 0 284
42 396 Magic 17 9 284
72 402 Elfalba 11 1050 284
65 401 Juancito117 37 0 284
48 398 Whiterose 11 0 284
395 93 poopoocaca 11 0 284
180 398 Soleil 20 0 285
118 407 Coolest1 11 0 286
138 406 loucarr90 21 0 286
8 388 owly 13 617 287
113 408 ShadowClaw 13 1125 287
25 395 K1ngg 15 0 287
13 391 Subspectrum 16 0 288
55 403 Elendil 25 0 288
56 404 Helmhammerhand 11 0 288
7 390 Stu 15 0 289
27 397 eFrane 14 0 289
39 401 MooMoo110110 16 0 289
45 403 disneyfreak627 21 0 290
26 399 Carwin 12 965 291
120 412 Dragonbeast 20 0 291
121 412 Demonland 24 0 291
177 405 Roland88 15 0 291
27 400 Mightyest 14 992 292
37 403 Weinerbob 16 225 292
112 413 ashndru 13 0 292
58 408 Neldawg 16 0 292
118 413 Thelldor 12 1385 292
95 413 Beardedwhitegod 23 12 292
15 397 Elenvanwa 14 0 293
56 409 jackofbritain 20 0 293
65 411 OCdtChapman 12 571 294
137 414 Karnij 11 0 294
100 415 Loudi 16 0 294
97 415 UberMonkeyz 11 0 294
127 415 LordAndre 19 0 294
132 415 Nicu 11 0 295
86 415 coldkiller 15 0 295
125 416 Tman12 25 0 295
144 415 Bruteslayer 12 0 296
53 411 WatDrum 17 0 296
52 411 Solar 27 0 296
125 417 Dixie_Normous 19 0 296
60 414 JakePerry 16 2056 298
36 409 Proud_Aussie 15 0 298
135 420 Berga 14 0 300
1 400 pheonix 15 0 300
67 418 NewUser-3QU4 13 5 300
62 418 xenith 24 0 301
393 12 John5285 25 0 301
13 406 odinlives 12 0 302
64 419 Ryan91 17 0 302
50 417 Ludduz 31 0 302
10 406 Mouth 13 0 303
35 414 Caixa06 12 0 303
58 420 PuRple0Predator 20 0 304
209 409 David20 14 0 304
138 425 BlueFox 11 0 305
143 426 buffyrulez 15 0 307
47 425 Guinchou 19 0 311
137 431 Thorien 19 0 311
119 433 _ACHILLES_ 20 0 312
142 433 SH1 14 0 313
144 435 DevilsDate1 17 1189 316
129 437 owen 12 0 316
142 438 Qtk 14 0 318
116 440 Grimborn 12 333 319
412 5 KOSKEN99 11 0 322
6 425 HotShot 12 58 322
134 443 novel 12 0 323
150 443 Phoenix12 22 0 324
13 430 DirtyDwarf 21 0 324
198 434 Alphaomega 14 1362 325
5 428 MadElf 11 985 325
56 442 Godorf 23 0 326
416 1 Ladybloom 20 0 327
200 436 Funklex 38 0 327
198 437 Gasper 17 0 327
13 434 K1NGD1LDO 17 0 328
122 450 Mcflyking2 12 1007 329
15 436 legolas85279 11 0 330
191 441 DJZammo 14 1446 330
159 449 Notmyown 24 0 331
58 449 Jokovic 40 0 332
160 450 Elaneer 12 0 332
146 452 Estra 12 228 333
57 450 Jokovic 40 0 334
56 450 GeoffDeGeoff 31 0 334
131 455 Sexy'n'hot 14 0 335
123 456 elthlandil 18 0 335
53 451 Banterville 27 0 335
146 456 Underworld 17 0 337
122 458 Forsho1 22 0 337
161 455 mexmariachi 39 0 338
148 457 Drstormaggedon 15 0 338
122 461 PublicChair 14 0 340
152 459 Willa 11 0 340
44 455 Melliver 11 0 341
121 462 Dawain 23 0 341
159 459 johnnyb 17 0 341
49 457 JeremyTheblue 13 1440 342
11 448 elwing 27 0 342
130 465 Drastic 46 0 344
19 453 ChrisTGOD 15 0 345
139 466 FaithnDestiny 19 1920 346
151 465 Kiwiwarrior 20 2204 346
13 453 King_Jacob 13 0 346
119 468 Blar 15 900 347
167 464 Byakko 16 0 347
19 459 Taylor8771 12 1524 351
462 96 Thekillerobot1 14 600 351
466 110 Hendrik 20 0 354
465 87 Carson94 11 0 355
273 437 koibur 11 0 355
140 477 petter82 15 0 357
15 466 MitchellLeetch 16 1956 358
153 478 SamWiseTheBabe 14 0 359
267 446 Luke 21 0 360
474 110 minaterrath 17 1070 362
152 482 NewUser-4TMY 15 900 363
159 482 SH2 16 0 364
474 66 finefinebooty 18 0 366
476 77 wilky 16 0 367
36 480 Jonnyway 18 0 367
273 451 Asskickerville 11 405 367
142 487 Bupyc 13 161 367
128 488 Samwise20 11 0 367
197 480 Nika 25 0 369
482 120 Legends 24 0 370
480 77 Snipes 11 0 371
480 76 Frogger 14 0 371
483 114 Jwallace 14 0 371
483 95 CallumS94 15 0 372
483 88 Elderon 15 1120 372
484 91 Evenstar21 12 0 373
482 64 deerstop 22 0 374
201 485 LordDanger 12 0 375
488 117 Bradypat 14 1677 376
485 73 aranthan 12 0 376
487 86 Darwin69 18 576 377
485 64 Stang28969 13 0 377
196 490 Specaltrum 11 0 378
488 77 1a2b3c 15 0 379
275 463 Sater 13 218 379
492 111 Kirsam 14 0 380
495 116 Caca 14 0 383
494 83 IGISS23 13 0 384
494 82 GandalfsGrotto 15 0 384
496 82 JoeBro 36 0 386
121 507 Dreamers 13 0 386
119 508 Twigster 15 730 387
120 508 Scorpious 24 0 387
499 81 Jmcgarry1337 14 0 389
501 128 NewUser-7MFU 17 0 389
500 79 lonlymountin 12 351 390
112 513 Archer713 16 0 392
449 322 Prestonias 24 0 392
110 515 Harrymace98 12 1728 394
506 125 ypypyp 13 0 394
112 516 SirKiza 36 1 395
109 516 Frodo_ 17 0 395
106 517 Fozzie 27 0 396
129 524 Matilescu 13 0 403
126 525 Babylon 11 0 404
130 527 bzone 17 0 406
172 524 Unit 25 0 407
128 529 bzone 17 0 408
65 527 Alexandra2 17 0 409
126 530 Angeles 27 0 409
206 521 Daiphong 11 0 411
62 529 Gandalf77 17 1513 411
61 530 LombadaAlphaDel 23 0 412
130 534 HARLEMSHAKES 14 0 413
171 531 PoninOwni 24 0 414
178 530 Bankai 14 810 414
209 525 Logi 22 0 415
49 532 Nicotorius 13 0 416
188 531 DrChooch 21 0 417
183 532 bubbletrouble 14 0 417
75 537 Uriel2190 11 85 418
64 536 Nateatack 11 0 418
47 535 HeroCity 15 0 419
192 536 GodofGods 17 0 423
54 541 Treebeard14 13 0 424
171 550 Spitfire865 11 773 433
174 553 Deadblackout 14 0 436
172 554 Jimi_Kay 11 0 437
167 555 Damore 11 0 437
402 454 HobbitLJWT 15 0 442
167 560 Redemption 29 0 442
138 564 HighmayLand 45 0 444
412 448 Reacher 28 0 444
392 466 Kgfloy 20 0 444
134 565 tigerpar 29 0 445
145 567 bodum 11 1240 447
126 569 Atlantis 26 0 448
36 566 SirPhilALot 16 0 451
129 573 Bjorklo 11 0 452
133 573 Lankin 12 0 452
140 573 CanadianPanda 44 0 453
400 472 mikerland 26 0 454
145 574 EdenLoveThomas 11 0 454
38 570 frodokeep 12 0 455
131 576 kix999 14 1425 455
417 460 Elderan 13 0 456
37 573 TheMadViking 52 0 458
130 579 TheHydra 29 0 458
145 580 panga 14 140 460
133 581 Galamoria 17 0 460
573 64 bankofpudding 16 0 465
121 586 Shoefiend 14 0 465
576 84 McGridley 37 0 465
129 587 Narvinye 17 0 466
132 588 SirNacho 19 2240 467
577 73 MagicFanJordan 11 0 467
133 588 SirNacho 19 2240 467
126 589 Reaper92 48 0 468
426 469 Marshman 11 0 469
125 590 Predator_world 31 0 469
581 81 IronSprear 13 0 471
579 61 snorlacks 16 0 471
581 53 Calinthus 18 0 474
584 75 xulek 12 0 474
585 62 Decobeleko 13 0 477
195 591 lanolis 11 0 477
196 591 Gloin 13 181 477
588 79 Mellany 13 0 478
429 479 karodil 16 0 478
121 600 Chewbacca 33 2400 479
427 488 Mcbr 17 0 484
592 59 Danico 21 0 484
592 52 Shandraai 18 0 485
589 32 Mani 11 0 485
586 13 lotrdame 13 0 486
595 57 Earindil 11 0 487
594 49 WillFlipUrSht 22 0 487
598 82 DonGideone 11 0 488
589 17 VonDracul 15 0 488
599 81 Dolgan 11 0 489
593 31 letzini 19 0 489
429 494 Higglebottom 17 0 490
457 469 Durin_the_Great 21 0 490
595 30 Seaglider666 23 0 491
599 50 Smegol96 14 0 492
597 37 Rhudaur 15 0 492
604 79 Richard_TheLion 31 376 494
598 28 Sir_Robert 11 1373 495
606 220 tAzzLe 13 0 504
608 224 Filmoresnach 16 0 507
612 218 Sigdale 11 145 509
615 219 fili_kili 27 0 512
620 189 Presail 14 80 513
617 220 fili_kili 27 0 515
619 215 Traveler 23 0 516
619 219 Austin952 14 0 516
622 216 Traveler 23 0 519
628 185 West2082 19 0 520
621 231 Leilaville 15 0 521
623 223 Keltic 35 0 521
621 234 Scaleymanfish 13 1505 521
630 189 FCK_YOU 21 0 522
624 229 Shegmin 11 1585 523
630 201 huor 20 0 524
626 226 TheFohn 16 0 525
632 214 Alaska 35 0 528
632 216 Alaska 35 0 529
630 230 Eldorado3 14 40 529
636 208 sture 19 0 531
638 209 Zackio 14 1201 533
195 651 MaST3r3Lf 16 0 536
191 653 Alassa 22 0 538
203 652 sacrophilia 12 1225 539
205 653 TheHobbit27 15 1865 540
193 655 Tunafish 14 0 540
412 606 LambofG 18 0 570
413 606 MistressKaela 13 1089 571
412 608 LambofG 18 0 572
412 613 loele 15 0 576
410 615 chrisloveslife 14 0 577
682 218 NATAS 13 0 578
409 621 Vidar500 16 36 582
408 622 mattlt 27 0 582
406 624 Benaza 23 0 583
401 628 TomRiddle 11 0 584
405 626 Malaf 14 0 584
408 625 Jensenville 12 1196 584
412 624 LordNein 20 2264 586
402 630 Grunbarbiljak 24 0 586
425 617 Predator_world 31 0 587
422 620 MrsMarkson 11 599 587
424 624 KingPate 21 0 592
409 635 Dorf 27 0 594
540 534 Gaurgor 11 0 595
392 646 smssol 11 0 595
392 648 Hanane 16 964 597
443 618 Ovitza 26 0 597
442 621 Mikehawkizard 12 0 599
414 639 Trickala 13 650 600
440 625 badassT 11 0 601
650 391 HobbitPit 16 0 602
424 636 Willisford 17 0 602
396 652 Beeboop 29 0 602
424 639 Willisford 17 0 605
683 321 Menzo 12 0 605
415 645 ZombieNoob 19 0 605
656 387 coldblooded 36 0 606
404 652 Mitt_Romney 15 0 606
424 641 _____ 32 484 606
657 389 Sausland 22 0 607
410 652 Deathskull 25 0 609
658 393 Dhufish 29 0 610
400 659 Ollyjimct 19 0 610
684 335 Lukepier 18 0 611
433 641 GiarcEkal 12 0 611
648 415 Sitaa 13 0 611
445 635 Jarhead1371 21 437 612
409 657 Stout 22 0 613
404 660 Azzar 30 846 613
432 644 KazeKing 32 250 613
426 649 FantasyBallers 11 0 614
414 658 Nanuck 11 0 616
660 405 Julianna 24 0 617
694 329 lEgozo 16 849 618
429 653 NewUser-8XGM 15 0 619
602 501 Proudfoot 18 448 620
427 656 cracked_canoe 16 0 621
605 503 Midgarde 11 0 624
430 658 LordOfDaElves 11 0 624
602 508 _Gorgo_ 12 0 624
450 647 Z0mbieL4nd 19 0 625
614 494 AyeP 11 0 625
606 505 Sikor 12 0 626
440 654 Benji93 21 0 626
434 660 DezertKing83 12 100 628
621 490 AtashBaazi 12 0 629
438 661 albertor 13 1160 631
438 664 grendelf 21 0 633
619 501 Drbabyarm 12 1300 634
620 506 furyy 22 0 637
621 507 Rossland 14 726 639
630 497 Lordjohnny 12 1445 640
631 498 Aidan_whiskey 25 0 641
637 492 kaze1502 18 0 643
632 503 Alexonfire 15 2105 645
643 490 LordCharles 35 0 647
636 500 Papirtanya 17 0 647
631 507 QueenMaverick22 32 0 647
647 488 Indy 29 0 649
634 512 Gizmo_buffy 13 865 652
405 704 NewUser-1VCWP 14 0 652
637 513 Ezlim 11 0 655
418 702 Jesse74 17 0 657
390 718 LordStawnj 17 0 659
450 688 NewUser-2RKP3 18 5 660
452 687 Drizzle 14 0 660
640 519 Bafur 20 2000 661
767 221 Jewtown 21 0 663
412 712 Wtfisthis 29 0 663
773 181 LadysmithII 30 0 664
770 223 Stonehege 20 633 666
400 722 JWhite 31 0 666
395 725 Hamish_the_gray 18 0 667
394 727 KING98 13 0 668
773 224 pirateninja 20 0 669
770 242 Tonio 19 0 669
399 726 EvilPL 12 0 670
399 727 takkuny 20 0 671
777 207 Elmora 12 0 671
772 245 Sasquatch 12 966 672
347 752 VHAERUN 13 0 673
786 143 chrispy27 18 2000 674
781 214 Khaos 11 1293 675
451 706 Umbar 25 0 676
463 699 mart840a 12 0 676
779 234 LASTS0LD13R 12 0 677
780 231 Byfevertown 42 4494 677
784 207 ElrondNorway 15 0 677
781 230 Byfevertown 42 4494 678
789 166 FalklandIslands 19 0 678
449 711 Vengence999 20 800 679
787 200 Caradoc 37 0 680
448 712 Charon 19 0 680
428 723 frodge 17 0 680
791 162 TheFence 18 0 680
456 708 SirCalvinofElbi 14 0 680
789 204 Buttonville 21 0 682
794 143 ThalmorKingdom 14 0 682
346 764 Melchizedek 14 1537 684
447 718 humdinger 16 0 685
790 22 Marrak 17 0 685
336 769 jackHerr 12 0 686
336 771 NewUser-7JF9 15 0 688
796 196 NewUser-2GHTF 11 1556 688
794 215 Blango 16 0 688
794 25 Beast 28 0 689
791 3 mortimer 11 0 689
792 8 Condalas 16 0 689
339 772 kristenhill 19 0 689
342 771 Leggolas 21 0 689
430 733 Moonshiner5 13 0 690
794 1 MatuLu 18 0 692
799 212 Mercenary 36 0 693
344 776 Jeff 12 0 695
351 775 NewUser-2OJSC 19 0 696
337 780 tarindis 12 0 696
697 499 Mule 13 965 696
353 775 HIGHtower 29 0 697
800 6 Shamu 18 116 698
333 783 Dbra15 11 0 698
718 476 SubZero 20 0 702
702 502 Aerael 20 0 702
722 473 Beeya 13 834 704
720 481 usarmydany 24 0 707
337 791 emaron 16 0 707
344 789 Micky 27 0 707
710 502 Lykos 27 0 709
706 510 Amed 12 0 710
338 795 kingkev 11 0 711
332 798 Thelaughingdead 14 0 712
729 477 Liamthewhite 11 636 712
729 480 KINGANUS 12 0 714
732 475 Fuzz 12 1450 714
714 507 Thargelion 15 0 715
725 490 Ivo15 11 0 715
722 499 hambone 14 0 718
742 482 AxtonBoss12 11 660 726
742 485 Morrovius 20 0 728
733 502 pi23 17 0 729
739 507 Sanjeron 27 0 736
740 511 Garetjx 47 0 739
730 551 Larry 30 0 753
729 554 Rye 18 0 754
730 564 DCskaterboy900 12 1400 760
535 759 Evil_Ash76 14 1209 765
537 758 NaaGhul 19 0 766
534 766 LordSinvaile 12 0 771
544 774 Lockerness 14 340 783
544 776 Lockerness 14 340 785
571 768 Johansburg 45 0 793
729 622 DuWelvarden 11 0 795
582 765 Koz 63 0 797
738 622 oldTinman 11 0 802
739 621 vxrracer1 14 0 802
731 634 B_Happy 12 0 804
733 632 the7ofSwords 35 0 804
736 631 orCHAZmic 16 0 806
736 632 bluto 18 0 807
584 783 Dobbie 16 0 813
740 638 SCage 38 0 813
586 794 Morgroth 18 0 823
736 678 PooheadPan 17 0 836
659 755 Devonzamo 20 0 837
732 684 Dwarodelf 30 0 837
657 757 Gregorians 20 0 838
662 754 kingofstones 16 0 839
734 685 Norxton 22 0 840
662 756 sem 15 0 840
660 758 Primejr 15 836 840
736 688 Libby 18 0 843
745 688 Andred 34 0 850
748 685 Moot 24 1799 850
731 704 KingOlwe 25 0 850
749 685 NewUser-27CMU 19 0 851
741 694 AnthonyBeck 12 0 851
746 689 Andred 34 0 851
784 650 8PACK 11 0 855
785 649 Khas 23 0 855
782 653 tinman4 15 0 856
738 706 iammclovin 14 0 857
736 709 Chickenherder 12 0 857
665 779 palestine 48 0 860
658 785 Gringots 11 0 860
662 783 palestine 48 0 861
748 701 NewUser-346ZO 15 990 861
738 713 Chickenherder 12 0 862
744 708 Tiny 20 900 863
747 709 Hunga 18 300 865
743 716 Quarion 23 0 867
772 760 jk14789 23 0 919
776 757 Unicycle 16 0 919
779 764 Paranil 11 822 926
785 768 Amerill 37 0 934
798 761 TwoSock360 13 729 938
786 781 MinatoMinoto 12 400 943
791 779 Val'theron 16 0 946
799 792 Senelia 14 2000 960
793 800 Bronco2025 18 0 962
799 796 Tibino 60 0 963
800 795 Tibino 60 0 963
